(set-logic QF_SLIA)
(set-option :produce-models true)
(declare-const X String)
; \b(0?[1-9]|1[0-2])(\/)(0?[1-9]|1[0-9]|2[0-9]|3[0-1])(\/)(0[0-8])\b
(assert (str.in_re X (re.++ (re.union (re.++ (re.opt (str.to_re "0")) (re.range "1" "9")) (re.++ (str.to_re "1") (re.range "0" "2"))) (str.to_re "/") (re.union (re.++ (re.opt (str.to_re "0")) (re.range "1" "9")) (re.++ (str.to_re "1") (re.range "0" "9")) (re.++ (str.to_re "2") (re.range "0" "9")) (re.++ (str.to_re "3") (re.range "0" "1"))) (str.to_re "/\u{0a}0") (re.range "0" "8"))))
; /GET\s\/[\w-]{64}\sHTTP\/1/
(assert (str.in_re X (re.++ (str.to_re "/GET") (re.union (str.to_re " ") (str.to_re "\u{09}") (str.to_re "\u{0a}") (str.to_re "\u{0c}") (str.to_re "\u{0d}")) (str.to_re "/") ((_ re.loop 64 64) (re.union (str.to_re "-") (re.range "0" "9") (re.range "A" "Z") (re.range "a" "z") (str.to_re "_"))) (re.union (str.to_re " ") (str.to_re "\u{09}") (str.to_re "\u{0a}") (str.to_re "\u{0c}") (str.to_re "\u{0d}")) (str.to_re "HTTP/1/\u{0a}"))))
; ^#(\d{6})|^#([A-F]{6})|^#([A-F]|[0-9]){6}
(assert (not (str.in_re X (re.++ (str.to_re "#") (re.union ((_ re.loop 6 6) (re.range "0" "9")) ((_ re.loop 6 6) (re.range "A" "F")) (re.++ ((_ re.loop 6 6) (re.union (re.range "A" "F") (re.range "0" "9"))) (str.to_re "\u{0a}")))))))
(check-sat)
